(set-logic QF_NRA)
(set-info :source |Benchmarks generated from hycomp (https://es-static.fbk.eu/tools/hycomp/). BMC instances of non-linear hybrid automata taken from: Alessandro Cimatti, Sergio Mover, Stefano Tonetta, A quantifier-free SMT encoding of non-linear hybrid automata, FMCAD 2012 and Alessandro Cimatti, Sergio Mover, Stefano Tonetta, Quantier-free encoding of invariants for Hybrid Systems, Formal Methods in System Design. This instance solves a BMC problem of depth 3 and uses the encoding obtained with quantifier elimination using redlog encoding. Contacts: Sergio Mover (mover@fbk.eu), Stefano Tonetta (tonettas@fbk.eu), Alessandro Cimatti (cimatti@fbk.eu).|)
(set-info :smt-lib-version 2.0)
(set-info :category "industrial")
(set-info :status unsat)
;; MathSAT API call trace
;; generated on Mon Mar 19 10:46:19 2012
(declare-fun b.y__AT0 () Real)
(declare-fun b.counter.0__AT0 () Bool)
(declare-fun b.EVENT.0__AT0 () Bool)
(declare-fun b.counter.3__AT0 () Bool)
(declare-fun b.counter.1__AT0 () Bool)
(declare-fun b.event_is_timed__AT2 () Bool)
(declare-fun b.bool_atom__AT1 () Bool)
(declare-fun b.x__AT1 () Real)
(declare-fun b.bool_atom__AT2 () Bool)
(declare-fun b.y__AT2 () Real)
(declare-fun b.time__AT2 () Real)
(declare-fun b.g__AT0 () Real)
(declare-fun b.speed_y__AT0 () Real)
(declare-fun b.delta__AT2 () Real)
(declare-fun b.event_is_timed__AT0 () Bool)
(declare-fun b.x__AT2 () Real)
(declare-fun b.EVENT.0__AT2 () Bool)
(declare-fun b.y__AT1 () Real)
(declare-fun b.counter.2__AT0 () Bool)
(declare-fun b.EVENT.1__AT2 () Bool)
(declare-fun b.event_is_timed__AT3 () Bool)
(declare-fun b.counter.0__AT1 () Bool)
(declare-fun b.counter.1__AT1 () Bool)
(declare-fun b.counter.2__AT1 () Bool)
(declare-fun b.time__AT3 () Real)
(declare-fun b.speed_y__AT2 () Real)
(declare-fun b.y__AT3 () Real)
(declare-fun b.counter.3__AT1 () Bool)
(declare-fun b.bool_atom__AT0 () Bool)
(declare-fun b.delta__AT3 () Real)
(declare-fun b.x__AT0 () Real)
(declare-fun b.counter.0__AT3 () Bool)
(declare-fun b.EVENT.0__AT3 () Bool)
(declare-fun b.EVENT.1__AT0 () Bool)
(declare-fun b.counter.0__AT2 () Bool)
(declare-fun b.counter.2__AT3 () Bool)
(declare-fun b.x__AT3 () Real)
(declare-fun b.delta__AT1 () Real)
(declare-fun b.counter.1__AT2 () Bool)
(declare-fun b.speed_y__AT1 () Real)
(declare-fun b.counter.3__AT3 () Bool)
(declare-fun b.time__AT1 () Real)
(declare-fun b.EVENT.0__AT1 () Bool)
(declare-fun b.EVENT.1__AT3 () Bool)
(declare-fun b.counter.2__AT2 () Bool)
(declare-fun b.bool_atom__AT3 () Bool)
(declare-fun b.time__AT0 () Real)
(declare-fun b.EVENT.1__AT1 () Bool)
(declare-fun b.counter.3__AT2 () Bool)
(declare-fun b.delta__AT0 () Real)
(declare-fun b.counter.1__AT3 () Bool)
(declare-fun b.speed_y__AT3 () Real)
(declare-fun b.event_is_timed__AT1 () Bool)
(assert (let ((.def_723 (* b.x__AT3 b.x__AT3)))
(let ((.def_719 (* 5.0 b.delta__AT3)))
(let ((.def_720 (* b.delta__AT3 .def_719)))
(let ((.def_721 (* (- 1.0) .def_720)))
(let ((.def_726 (+ .def_721 .def_723)))
(let ((.def_718 (* b.speed_y__AT3 b.delta__AT3)))
(let ((.def_727 (+ .def_718 .def_726)))
(let ((.def_728 (+ b.y__AT3 .def_727)))
(let ((.def_729 (<= 0.0 .def_728)))
(let ((.def_759 (not .def_729)))
(let ((.def_741 (* (- 10.0) b.delta__AT3)))
(let ((.def_742 (+ b.speed_y__AT3 .def_741)))
(let ((.def_743 (<= 0.0 .def_742)))
(let ((.def_760 (and .def_743 .def_759)))
(let ((.def_752 (+ b.y__AT3 .def_723)))
(let ((.def_757 (<= 0.0 .def_752)))
(let ((.def_754 (<= b.speed_y__AT3 0.0 )))
(let ((.def_758 (or .def_754 .def_757)))
(let ((.def_761 (or .def_758 .def_760)))
(let ((.def_753 (<= .def_752 0.0 )))
(let ((.def_755 (and .def_753 .def_754)))
(let ((.def_747 (<= .def_742 0.0 )))
(let ((.def_748 (not .def_747)))
(let ((.def_745 (= .def_728 0.0 )))
(let ((.def_746 (not .def_745)))
(let ((.def_749 (or .def_746 .def_748)))
(let ((.def_744 (or .def_729 .def_743)))
(let ((.def_750 (and .def_744 .def_749)))
(let ((.def_731 (* 20.0 b.x__AT3)))
(let ((.def_732 (* b.x__AT3 .def_731)))
(let ((.def_607 (* b.speed_y__AT3 b.speed_y__AT3)))
(let ((.def_733 (+ .def_607 .def_732)))
(let ((.def_734 (* 20.0 b.y__AT3)))
(let ((.def_736 (+ .def_734 .def_733)))
(let ((.def_739 (<= .def_736 0.0 )))
(let ((.def_740 (not .def_739)))
(let ((.def_751 (or .def_740 .def_750)))
(let ((.def_756 (or .def_751 .def_755)))
(let ((.def_762 (and .def_756 .def_761)))
(let ((.def_737 (<= 0.0 .def_736)))
(let ((.def_738 (not .def_737)))
(let ((.def_763 (or .def_738 .def_762)))
(let ((.def_716 (<= 0.0 b.delta__AT3)))
(let ((.def_717 (not .def_716)))
(let ((.def_730 (or .def_717 .def_729)))
(let ((.def_764 (and .def_730 .def_763)))
(let ((.def_699 (not b.EVENT.0__AT3)))
(let ((.def_697 (not b.EVENT.1__AT3)))
(let ((.def_713 (and .def_697 .def_699)))
(let ((.def_714 (not .def_713)))
(let ((.def_765 (or .def_714 .def_764)))
(let ((.def_410 (not b.counter.0__AT2)))
(let ((.def_708 (or b.counter.1__AT2 .def_410)))
(let ((.def_405 (not b.counter.2__AT2)))
(let ((.def_709 (or .def_405 .def_708)))
(let ((.def_710 (or b.counter.3__AT2 .def_709)))
(let ((.def_702 (* (- 1.0) b.x__AT3)))
(let ((.def_703 (* b.x__AT3 .def_702)))
(let ((.def_704 (<= .def_703 b.y__AT3)))
(let ((.def_58 (<= b.g__AT0 10.0 )))
(let ((.def_57 (<= 8.0 b.g__AT0)))
(let ((.def_59 (and .def_57 .def_58)))
(let ((.def_705 (and .def_59 .def_704)))
(let ((.def_700 (or .def_697 .def_699)))
(let ((.def_610 (not b.counter.1__AT3)))
(let ((.def_4 (not b.counter.0__AT3)))
(let ((.def_690 (or .def_4 .def_610)))
(let ((.def_694 (or b.counter.3__AT3 .def_690)))
(let ((.def_691 (or b.counter.2__AT3 .def_690)))
(let ((.def_8 (not b.counter.2__AT3)))
(let ((.def_689 (or .def_4 .def_8)))
(let ((.def_692 (and .def_689 .def_691)))
(let ((.def_627 (not b.counter.3__AT3)))
(let ((.def_693 (or .def_627 .def_692)))
(let ((.def_695 (and .def_693 .def_694)))
(let ((.def_701 (and .def_695 .def_700)))
(let ((.def_706 (and .def_701 .def_705)))
(let ((.def_508 (<= 0.0 b.delta__AT2)))
(let ((.def_491 (not b.EVENT.0__AT2)))
(let ((.def_489 (not b.EVENT.1__AT2)))
(let ((.def_505 (and .def_489 .def_491)))
(let ((.def_506 (not .def_505)))
(let ((.def_685 (or .def_506 .def_508)))
(let ((.def_686 (or b.EVENT.1__AT2 .def_685)))
(let ((.def_594 (= b.bool_atom__AT2 b.bool_atom__AT3)))
(let ((.def_590 (= b.counter.0__AT3 b.counter.0__AT2)))
(let ((.def_588 (= b.counter.1__AT3 b.counter.1__AT2)))
(let ((.def_586 (= b.counter.2__AT3 b.counter.2__AT2)))
(let ((.def_585 (= b.counter.3__AT3 b.counter.3__AT2)))
(let ((.def_587 (and .def_585 .def_586)))
(let ((.def_589 (and .def_587 .def_588)))
(let ((.def_591 (and .def_589 .def_590)))
(let ((.def_681 (and .def_591 .def_594)))
(let ((.def_682 (or .def_506 .def_681)))
(let ((.def_683 (or b.EVENT.1__AT2 .def_682)))
(let ((.def_233 (* (- 1.0) b.g__AT0)))
(let ((.def_669 (* .def_233 b.delta__AT2)))
(let ((.def_670 (* (- 1.0) b.speed_y__AT3)))
(let ((.def_673 (+ .def_670 .def_669)))
(let ((.def_674 (+ b.speed_y__AT2 .def_673)))
(let ((.def_675 (= .def_674 0.0 )))
(let ((.def_659 (* b.delta__AT2 b.delta__AT2)))
(let ((.def_236 (* (/ 1 2) .def_233)))
(let ((.def_660 (* .def_236 .def_659)))
(let ((.def_661 (* (- 1.0) b.y__AT3)))
(let ((.def_665 (+ .def_661 .def_660)))
(let ((.def_510 (* b.speed_y__AT2 b.delta__AT2)))
(let ((.def_666 (+ .def_510 .def_665)))
(let ((.def_667 (+ b.y__AT2 .def_666)))
(let ((.def_668 (= .def_667 0.0 )))
(let ((.def_676 (and .def_668 .def_675)))
(let ((.def_577 (= b.x__AT2 b.x__AT3)))
(let ((.def_677 (and .def_577 .def_676)))
(let ((.def_678 (or .def_506 .def_677)))
(let ((.def_580 (= b.y__AT2 b.y__AT3)))
(let ((.def_654 (and .def_577 .def_580)))
(let ((.def_583 (= b.speed_y__AT2 b.speed_y__AT3)))
(let ((.def_655 (and .def_583 .def_654)))
(let ((.def_651 (= b.delta__AT2 0.0 )))
(let ((.def_652 (and .def_505 .def_651)))
(let ((.def_653 (not .def_652)))
(let ((.def_656 (or .def_653 .def_655)))
(let ((.def_657 (or b.EVENT.1__AT2 .def_656)))
(let ((.def_644 (and .def_583 .def_591)))
(let ((.def_645 (or b.bool_atom__AT2 .def_644)))
(let ((.def_619 (or .def_4 b.counter.0__AT2)))
(let ((.def_618 (or b.counter.0__AT3 .def_410)))
(let ((.def_620 (and .def_618 .def_619)))
(let ((.def_621 (and .def_610 .def_620)))
(let ((.def_622 (or b.counter.1__AT2 .def_621)))
(let ((.def_400 (not b.counter.1__AT2)))
(let ((.def_617 (or b.counter.1__AT3 .def_400)))
(let ((.def_623 (and .def_617 .def_622)))
(let ((.def_635 (and .def_8 .def_623)))
(let ((.def_636 (or b.counter.2__AT2 .def_635)))
(let ((.def_630 (and .def_410 .def_610)))
(let ((.def_631 (or b.counter.1__AT2 .def_630)))
(let ((.def_632 (and .def_617 .def_631)))
(let ((.def_633 (and b.counter.2__AT3 .def_632)))
(let ((.def_634 (or .def_405 .def_633)))
(let ((.def_637 (and .def_634 .def_636)))
(let ((.def_638 (and b.counter.3__AT3 .def_637)))
(let ((.def_639 (or b.counter.3__AT2 .def_638)))
(let ((.def_624 (and b.counter.2__AT3 .def_623)))
(let ((.def_625 (or b.counter.2__AT2 .def_624)))
(let ((.def_613 (or b.counter.1__AT3 b.counter.1__AT2)))
(let ((.def_611 (and b.counter.0__AT3 .def_610)))
(let ((.def_612 (or .def_400 .def_611)))
(let ((.def_614 (and .def_612 .def_613)))
(let ((.def_615 (and .def_8 .def_614)))
(let ((.def_616 (or .def_405 .def_615)))
(let ((.def_626 (and .def_616 .def_625)))
(let ((.def_628 (and .def_626 .def_627)))
(let ((.def_419 (not b.counter.3__AT2)))
(let ((.def_629 (or .def_419 .def_628)))
(let ((.def_640 (and .def_629 .def_639)))
(let ((.def_397 (* b.speed_y__AT2 b.speed_y__AT2)))
(let ((.def_608 (= .def_397 .def_607)))
(let ((.def_605 (+ b.speed_y__AT2 b.speed_y__AT3)))
(let ((.def_606 (= .def_605 0.0 )))
(let ((.def_609 (and .def_606 .def_608)))
(let ((.def_641 (and .def_609 .def_640)))
(let ((.def_604 (not b.bool_atom__AT2)))
(let ((.def_642 (or .def_604 .def_641)))
(let ((.def_600 (<= 0.0 b.speed_y__AT2)))
(let ((.def_601 (not .def_600)))
(let ((.def_494 (* (- 1.0) b.x__AT2)))
(let ((.def_495 (* b.x__AT2 .def_494)))
(let ((.def_599 (= b.y__AT2 .def_495)))
(let ((.def_602 (and .def_599 .def_601)))
(let ((.def_603 (= b.bool_atom__AT2 .def_602)))
(let ((.def_643 (and .def_603 .def_642)))
(let ((.def_646 (and .def_643 .def_645)))
(let ((.def_647 (and .def_577 .def_646)))
(let ((.def_648 (and .def_580 .def_647)))
(let ((.def_649 (or .def_505 .def_648)))
(let ((.def_650 (or b.EVENT.1__AT2 .def_649)))
(let ((.def_658 (and .def_650 .def_657)))
(let ((.def_679 (and .def_658 .def_678)))
(let ((.def_564 (= b.time__AT2 b.time__AT3)))
(let ((.def_578 (and .def_564 .def_577)))
(let ((.def_581 (and .def_578 .def_580)))
(let ((.def_584 (and .def_581 .def_583)))
(let ((.def_592 (and .def_584 .def_591)))
(let ((.def_595 (and .def_592 .def_594)))
(let ((.def_596 (or .def_489 .def_595)))
(let ((.def_567 (* (- 1.0) b.time__AT3)))
(let ((.def_570 (+ b.delta__AT2 .def_567)))
(let ((.def_571 (+ b.time__AT2 .def_570)))
(let ((.def_572 (= .def_571 0.0 )))
(let ((.def_573 (or .def_506 .def_572)))
(let ((.def_574 (or b.EVENT.1__AT2 .def_573)))
(let ((.def_565 (or .def_505 .def_564)))
(let ((.def_566 (or b.EVENT.1__AT2 .def_565)))
(let ((.def_575 (and .def_566 .def_574)))
(let ((.def_597 (and .def_575 .def_596)))
(let ((.def_561 (= .def_506 b.event_is_timed__AT3)))
(let ((.def_559 (= b.event_is_timed__AT2 .def_505)))
(let ((.def_562 (and .def_559 .def_561)))
(let ((.def_598 (and .def_562 .def_597)))
(let ((.def_680 (and .def_598 .def_679)))
(let ((.def_684 (and .def_680 .def_683)))
(let ((.def_687 (and .def_684 .def_686)))
(let ((.def_688 (and .def_489 .def_687)))
(let ((.def_707 (and .def_688 .def_706)))
(let ((.def_711 (and .def_707 .def_710)))
(let ((.def_515 (* b.x__AT2 b.x__AT2)))
(let ((.def_511 (* 5.0 b.delta__AT2)))
(let ((.def_512 (* b.delta__AT2 .def_511)))
(let ((.def_513 (* (- 1.0) .def_512)))
(let ((.def_518 (+ .def_513 .def_515)))
(let ((.def_519 (+ .def_510 .def_518)))
(let ((.def_520 (+ b.y__AT2 .def_519)))
(let ((.def_521 (<= 0.0 .def_520)))
(let ((.def_551 (not .def_521)))
(let ((.def_533 (* (- 10.0) b.delta__AT2)))
(let ((.def_534 (+ b.speed_y__AT2 .def_533)))
(let ((.def_535 (<= 0.0 .def_534)))
(let ((.def_552 (and .def_535 .def_551)))
(let ((.def_544 (+ b.y__AT2 .def_515)))
(let ((.def_549 (<= 0.0 .def_544)))
(let ((.def_546 (<= b.speed_y__AT2 0.0 )))
(let ((.def_550 (or .def_546 .def_549)))
(let ((.def_553 (or .def_550 .def_552)))
(let ((.def_545 (<= .def_544 0.0 )))
(let ((.def_547 (and .def_545 .def_546)))
(let ((.def_539 (<= .def_534 0.0 )))
(let ((.def_540 (not .def_539)))
(let ((.def_537 (= .def_520 0.0 )))
(let ((.def_538 (not .def_537)))
(let ((.def_541 (or .def_538 .def_540)))
(let ((.def_536 (or .def_521 .def_535)))
(let ((.def_542 (and .def_536 .def_541)))
(let ((.def_523 (* 20.0 b.x__AT2)))
(let ((.def_524 (* b.x__AT2 .def_523)))
(let ((.def_525 (+ .def_397 .def_524)))
(let ((.def_526 (* 20.0 b.y__AT2)))
(let ((.def_528 (+ .def_526 .def_525)))
(let ((.def_531 (<= .def_528 0.0 )))
(let ((.def_532 (not .def_531)))
(let ((.def_543 (or .def_532 .def_542)))
(let ((.def_548 (or .def_543 .def_547)))
(let ((.def_554 (and .def_548 .def_553)))
(let ((.def_529 (<= 0.0 .def_528)))
(let ((.def_530 (not .def_529)))
(let ((.def_555 (or .def_530 .def_554)))
(let ((.def_509 (not .def_508)))
(let ((.def_522 (or .def_509 .def_521)))
(let ((.def_556 (and .def_522 .def_555)))
(let ((.def_557 (or .def_506 .def_556)))
(let ((.def_192 (not b.counter.0__AT1)))
(let ((.def_500 (or b.counter.1__AT1 .def_192)))
(let ((.def_187 (not b.counter.2__AT1)))
(let ((.def_501 (or .def_187 .def_500)))
(let ((.def_502 (or b.counter.3__AT1 .def_501)))
(let ((.def_496 (<= .def_495 b.y__AT2)))
(let ((.def_497 (and .def_59 .def_496)))
(let ((.def_492 (or .def_489 .def_491)))
(let ((.def_482 (or .def_400 .def_410)))
(let ((.def_486 (or b.counter.3__AT2 .def_482)))
(let ((.def_483 (or b.counter.2__AT2 .def_482)))
(let ((.def_481 (or .def_405 .def_410)))
(let ((.def_484 (and .def_481 .def_483)))
(let ((.def_485 (or .def_419 .def_484)))
(let ((.def_487 (and .def_485 .def_486)))
(let ((.def_493 (and .def_487 .def_492)))
(let ((.def_498 (and .def_493 .def_497)))
(let ((.def_294 (<= 0.0 b.delta__AT1)))
(let ((.def_277 (not b.EVENT.0__AT1)))
(let ((.def_275 (not b.EVENT.1__AT1)))
(let ((.def_291 (and .def_275 .def_277)))
(let ((.def_292 (not .def_291)))
(let ((.def_477 (or .def_292 .def_294)))
(let ((.def_478 (or b.EVENT.1__AT1 .def_477)))
(let ((.def_384 (= b.bool_atom__AT1 b.bool_atom__AT2)))
(let ((.def_380 (= b.counter.0__AT1 b.counter.0__AT2)))
(let ((.def_377 (= b.counter.1__AT1 b.counter.1__AT2)))
(let ((.def_374 (= b.counter.2__AT1 b.counter.2__AT2)))
(let ((.def_372 (= b.counter.3__AT1 b.counter.3__AT2)))
(let ((.def_375 (and .def_372 .def_374)))
(let ((.def_378 (and .def_375 .def_377)))
(let ((.def_381 (and .def_378 .def_380)))
(let ((.def_473 (and .def_381 .def_384)))
(let ((.def_474 (or .def_292 .def_473)))
(let ((.def_475 (or b.EVENT.1__AT1 .def_474)))
(let ((.def_461 (* .def_233 b.delta__AT1)))
(let ((.def_462 (* (- 1.0) b.speed_y__AT2)))
(let ((.def_465 (+ .def_462 .def_461)))
(let ((.def_466 (+ b.speed_y__AT1 .def_465)))
(let ((.def_467 (= .def_466 0.0 )))
(let ((.def_451 (* b.delta__AT1 b.delta__AT1)))
(let ((.def_452 (* .def_236 .def_451)))
(let ((.def_453 (* (- 1.0) b.y__AT2)))
(let ((.def_457 (+ .def_453 .def_452)))
(let ((.def_296 (* b.speed_y__AT1 b.delta__AT1)))
(let ((.def_458 (+ .def_296 .def_457)))
(let ((.def_459 (+ b.y__AT1 .def_458)))
(let ((.def_460 (= .def_459 0.0 )))
(let ((.def_468 (and .def_460 .def_467)))
(let ((.def_363 (= b.x__AT1 b.x__AT2)))
(let ((.def_469 (and .def_363 .def_468)))
(let ((.def_470 (or .def_292 .def_469)))
(let ((.def_366 (= b.y__AT1 b.y__AT2)))
(let ((.def_446 (and .def_363 .def_366)))
(let ((.def_369 (= b.speed_y__AT1 b.speed_y__AT2)))
(let ((.def_447 (and .def_369 .def_446)))
(let ((.def_443 (= b.delta__AT1 0.0 )))
(let ((.def_444 (and .def_291 .def_443)))
(let ((.def_445 (not .def_444)))
(let ((.def_448 (or .def_445 .def_447)))
(let ((.def_449 (or b.EVENT.1__AT1 .def_448)))
(let ((.def_436 (and .def_369 .def_381)))
(let ((.def_437 (or b.bool_atom__AT1 .def_436)))
(let ((.def_411 (or b.counter.0__AT1 .def_410)))
(let ((.def_409 (or .def_192 b.counter.0__AT2)))
(let ((.def_412 (and .def_409 .def_411)))
(let ((.def_413 (and .def_400 .def_412)))
(let ((.def_414 (or b.counter.1__AT1 .def_413)))
(let ((.def_182 (not b.counter.1__AT1)))
(let ((.def_408 (or .def_182 b.counter.1__AT2)))
(let ((.def_415 (and .def_408 .def_414)))
(let ((.def_427 (and .def_405 .def_415)))
(let ((.def_428 (or b.counter.2__AT1 .def_427)))
(let ((.def_422 (and .def_192 .def_400)))
(let ((.def_423 (or b.counter.1__AT1 .def_422)))
(let ((.def_424 (and .def_408 .def_423)))
(let ((.def_425 (and b.counter.2__AT2 .def_424)))
(let ((.def_426 (or .def_187 .def_425)))
(let ((.def_429 (and .def_426 .def_428)))
(let ((.def_430 (and b.counter.3__AT2 .def_429)))
(let ((.def_431 (or b.counter.3__AT1 .def_430)))
(let ((.def_416 (and b.counter.2__AT2 .def_415)))
(let ((.def_417 (or b.counter.2__AT1 .def_416)))
(let ((.def_403 (or b.counter.1__AT1 b.counter.1__AT2)))
(let ((.def_401 (and b.counter.0__AT2 .def_400)))
(let ((.def_402 (or .def_182 .def_401)))
(let ((.def_404 (and .def_402 .def_403)))
(let ((.def_406 (and .def_404 .def_405)))
(let ((.def_407 (or .def_187 .def_406)))
(let ((.def_418 (and .def_407 .def_417)))
(let ((.def_420 (and .def_418 .def_419)))
(let ((.def_201 (not b.counter.3__AT1)))
(let ((.def_421 (or .def_201 .def_420)))
(let ((.def_432 (and .def_421 .def_431)))
(let ((.def_179 (* b.speed_y__AT1 b.speed_y__AT1)))
(let ((.def_398 (= .def_179 .def_397)))
(let ((.def_395 (+ b.speed_y__AT1 b.speed_y__AT2)))
(let ((.def_396 (= .def_395 0.0 )))
(let ((.def_399 (and .def_396 .def_398)))
(let ((.def_433 (and .def_399 .def_432)))
(let ((.def_394 (not b.bool_atom__AT1)))
(let ((.def_434 (or .def_394 .def_433)))
(let ((.def_390 (<= 0.0 b.speed_y__AT1)))
(let ((.def_391 (not .def_390)))
(let ((.def_280 (* (- 1.0) b.x__AT1)))
(let ((.def_281 (* b.x__AT1 .def_280)))
(let ((.def_389 (= b.y__AT1 .def_281)))
(let ((.def_392 (and .def_389 .def_391)))
(let ((.def_393 (= b.bool_atom__AT1 .def_392)))
(let ((.def_435 (and .def_393 .def_434)))
(let ((.def_438 (and .def_435 .def_437)))
(let ((.def_439 (and .def_363 .def_438)))
(let ((.def_440 (and .def_366 .def_439)))
(let ((.def_441 (or .def_291 .def_440)))
(let ((.def_442 (or b.EVENT.1__AT1 .def_441)))
(let ((.def_450 (and .def_442 .def_449)))
(let ((.def_471 (and .def_450 .def_470)))
(let ((.def_350 (= b.time__AT1 b.time__AT2)))
(let ((.def_364 (and .def_350 .def_363)))
(let ((.def_367 (and .def_364 .def_366)))
(let ((.def_370 (and .def_367 .def_369)))
(let ((.def_382 (and .def_370 .def_381)))
(let ((.def_385 (and .def_382 .def_384)))
(let ((.def_386 (or .def_275 .def_385)))
(let ((.def_353 (* (- 1.0) b.time__AT2)))
(let ((.def_356 (+ b.delta__AT1 .def_353)))
(let ((.def_357 (+ b.time__AT1 .def_356)))
(let ((.def_358 (= .def_357 0.0 )))
(let ((.def_359 (or .def_292 .def_358)))
(let ((.def_360 (or b.EVENT.1__AT1 .def_359)))
(let ((.def_351 (or .def_291 .def_350)))
(let ((.def_352 (or b.EVENT.1__AT1 .def_351)))
(let ((.def_361 (and .def_352 .def_360)))
(let ((.def_387 (and .def_361 .def_386)))
(let ((.def_347 (= .def_292 b.event_is_timed__AT2)))
(let ((.def_345 (= b.event_is_timed__AT1 .def_291)))
(let ((.def_348 (and .def_345 .def_347)))
(let ((.def_388 (and .def_348 .def_387)))
(let ((.def_472 (and .def_388 .def_471)))
(let ((.def_476 (and .def_472 .def_475)))
(let ((.def_479 (and .def_476 .def_478)))
(let ((.def_480 (and .def_275 .def_479)))
(let ((.def_499 (and .def_480 .def_498)))
(let ((.def_503 (and .def_499 .def_502)))
(let ((.def_301 (* b.x__AT1 b.x__AT1)))
(let ((.def_297 (* 5.0 b.delta__AT1)))
(let ((.def_298 (* b.delta__AT1 .def_297)))
(let ((.def_299 (* (- 1.0) .def_298)))
(let ((.def_304 (+ .def_299 .def_301)))
(let ((.def_305 (+ .def_296 .def_304)))
(let ((.def_306 (+ b.y__AT1 .def_305)))
(let ((.def_307 (<= 0.0 .def_306)))
(let ((.def_337 (not .def_307)))
(let ((.def_319 (* (- 10.0) b.delta__AT1)))
(let ((.def_320 (+ b.speed_y__AT1 .def_319)))
(let ((.def_321 (<= 0.0 .def_320)))
(let ((.def_338 (and .def_321 .def_337)))
(let ((.def_330 (+ b.y__AT1 .def_301)))
(let ((.def_335 (<= 0.0 .def_330)))
(let ((.def_332 (<= b.speed_y__AT1 0.0 )))
(let ((.def_336 (or .def_332 .def_335)))
(let ((.def_339 (or .def_336 .def_338)))
(let ((.def_331 (<= .def_330 0.0 )))
(let ((.def_333 (and .def_331 .def_332)))
(let ((.def_325 (<= .def_320 0.0 )))
(let ((.def_326 (not .def_325)))
(let ((.def_323 (= .def_306 0.0 )))
(let ((.def_324 (not .def_323)))
(let ((.def_327 (or .def_324 .def_326)))
(let ((.def_322 (or .def_307 .def_321)))
(let ((.def_328 (and .def_322 .def_327)))
(let ((.def_309 (* 20.0 b.x__AT1)))
(let ((.def_310 (* b.x__AT1 .def_309)))
(let ((.def_311 (+ .def_179 .def_310)))
(let ((.def_312 (* 20.0 b.y__AT1)))
(let ((.def_314 (+ .def_312 .def_311)))
(let ((.def_317 (<= .def_314 0.0 )))
(let ((.def_318 (not .def_317)))
(let ((.def_329 (or .def_318 .def_328)))
(let ((.def_334 (or .def_329 .def_333)))
(let ((.def_340 (and .def_334 .def_339)))
(let ((.def_315 (<= 0.0 .def_314)))
(let ((.def_316 (not .def_315)))
(let ((.def_341 (or .def_316 .def_340)))
(let ((.def_295 (not .def_294)))
(let ((.def_308 (or .def_295 .def_307)))
(let ((.def_342 (and .def_308 .def_341)))
(let ((.def_343 (or .def_292 .def_342)))
(let ((.def_28 (not b.counter.0__AT0)))
(let ((.def_286 (or b.counter.1__AT0 .def_28)))
(let ((.def_31 (not b.counter.2__AT0)))
(let ((.def_287 (or .def_31 .def_286)))
(let ((.def_288 (or b.counter.3__AT0 .def_287)))
(let ((.def_282 (<= .def_281 b.y__AT1)))
(let ((.def_283 (and .def_59 .def_282)))
(let ((.def_278 (or .def_275 .def_277)))
(let ((.def_268 (or .def_182 .def_192)))
(let ((.def_272 (or b.counter.3__AT1 .def_268)))
(let ((.def_269 (or b.counter.2__AT1 .def_268)))
(let ((.def_267 (or .def_187 .def_192)))
(let ((.def_270 (and .def_267 .def_269)))
(let ((.def_271 (or .def_201 .def_270)))
(let ((.def_273 (and .def_271 .def_272)))
(let ((.def_279 (and .def_273 .def_278)))
(let ((.def_284 (and .def_279 .def_283)))
(let ((.def_67 (<= 0.0 b.delta__AT0)))
(let ((.def_47 (not b.EVENT.0__AT0)))
(let ((.def_45 (not b.EVENT.1__AT0)))
(let ((.def_64 (and .def_45 .def_47)))
(let ((.def_65 (not .def_64)))
(let ((.def_263 (or .def_65 .def_67)))
(let ((.def_264 (or b.EVENT.1__AT0 .def_263)))
(let ((.def_166 (= b.bool_atom__AT0 b.bool_atom__AT1)))
(let ((.def_161 (= b.counter.0__AT0 b.counter.0__AT1)))
(let ((.def_158 (= b.counter.1__AT0 b.counter.1__AT1)))
(let ((.def_155 (= b.counter.2__AT0 b.counter.2__AT1)))
(let ((.def_153 (= b.counter.3__AT0 b.counter.3__AT1)))
(let ((.def_156 (and .def_153 .def_155)))
(let ((.def_159 (and .def_156 .def_158)))
(let ((.def_162 (and .def_159 .def_161)))
(let ((.def_259 (and .def_162 .def_166)))
(let ((.def_260 (or .def_65 .def_259)))
(let ((.def_261 (or b.EVENT.1__AT0 .def_260)))
(let ((.def_247 (* b.delta__AT0 .def_233)))
(let ((.def_248 (* (- 1.0) b.speed_y__AT1)))
(let ((.def_251 (+ .def_248 .def_247)))
(let ((.def_252 (+ b.speed_y__AT0 .def_251)))
(let ((.def_253 (= .def_252 0.0 )))
(let ((.def_237 (* b.delta__AT0 b.delta__AT0)))
(let ((.def_238 (* .def_236 .def_237)))
(let ((.def_240 (* (- 1.0) b.y__AT1)))
(let ((.def_243 (+ .def_240 .def_238)))
(let ((.def_70 (* b.delta__AT0 b.speed_y__AT0)))
(let ((.def_244 (+ .def_70 .def_243)))
(let ((.def_245 (+ b.y__AT0 .def_244)))
(let ((.def_246 (= .def_245 0.0 )))
(let ((.def_254 (and .def_246 .def_253)))
(let ((.def_144 (= b.x__AT0 b.x__AT1)))
(let ((.def_255 (and .def_144 .def_254)))
(let ((.def_256 (or .def_65 .def_255)))
(let ((.def_147 (= b.y__AT0 b.y__AT1)))
(let ((.def_228 (and .def_144 .def_147)))
(let ((.def_150 (= b.speed_y__AT0 b.speed_y__AT1)))
(let ((.def_229 (and .def_150 .def_228)))
(let ((.def_225 (= b.delta__AT0 0.0 )))
(let ((.def_226 (and .def_64 .def_225)))
(let ((.def_227 (not .def_226)))
(let ((.def_230 (or .def_227 .def_229)))
(let ((.def_231 (or b.EVENT.1__AT0 .def_230)))
(let ((.def_218 (and .def_150 .def_162)))
(let ((.def_219 (or b.bool_atom__AT0 .def_218)))
(let ((.def_193 (or b.counter.0__AT0 .def_192)))
(let ((.def_191 (or .def_28 b.counter.0__AT1)))
(let ((.def_194 (and .def_191 .def_193)))
(let ((.def_195 (and .def_182 .def_194)))
(let ((.def_196 (or b.counter.1__AT0 .def_195)))
(let ((.def_26 (not b.counter.1__AT0)))
(let ((.def_190 (or .def_26 b.counter.1__AT1)))
(let ((.def_197 (and .def_190 .def_196)))
(let ((.def_209 (and .def_187 .def_197)))
(let ((.def_210 (or b.counter.2__AT0 .def_209)))
(let ((.def_204 (and .def_28 .def_182)))
(let ((.def_205 (or b.counter.1__AT0 .def_204)))
(let ((.def_206 (and .def_190 .def_205)))
(let ((.def_207 (and b.counter.2__AT1 .def_206)))
(let ((.def_208 (or .def_31 .def_207)))
(let ((.def_211 (and .def_208 .def_210)))
(let ((.def_212 (and b.counter.3__AT1 .def_211)))
(let ((.def_213 (or b.counter.3__AT0 .def_212)))
(let ((.def_198 (and b.counter.2__AT1 .def_197)))
(let ((.def_199 (or b.counter.2__AT0 .def_198)))
(let ((.def_185 (or b.counter.1__AT0 b.counter.1__AT1)))
(let ((.def_183 (and b.counter.0__AT1 .def_182)))
(let ((.def_184 (or .def_26 .def_183)))
(let ((.def_186 (and .def_184 .def_185)))
(let ((.def_188 (and .def_186 .def_187)))
(let ((.def_189 (or .def_31 .def_188)))
(let ((.def_200 (and .def_189 .def_199)))
(let ((.def_202 (and .def_200 .def_201)))
(let ((.def_34 (not b.counter.3__AT0)))
(let ((.def_203 (or .def_34 .def_202)))
(let ((.def_214 (and .def_203 .def_213)))
(let ((.def_84 (* b.speed_y__AT0 b.speed_y__AT0)))
(let ((.def_180 (= .def_84 .def_179)))
(let ((.def_177 (+ b.speed_y__AT0 b.speed_y__AT1)))
(let ((.def_178 (= .def_177 0.0 )))
(let ((.def_181 (and .def_178 .def_180)))
(let ((.def_215 (and .def_181 .def_214)))
(let ((.def_176 (not b.bool_atom__AT0)))
(let ((.def_216 (or .def_176 .def_215)))
(let ((.def_172 (<= 0.0 b.speed_y__AT0)))
(let ((.def_173 (not .def_172)))
(let ((.def_52 (* (- 1.0) b.x__AT0)))
(let ((.def_53 (* b.x__AT0 .def_52)))
(let ((.def_171 (= b.y__AT0 .def_53)))
(let ((.def_174 (and .def_171 .def_173)))
(let ((.def_175 (= b.bool_atom__AT0 .def_174)))
(let ((.def_217 (and .def_175 .def_216)))
(let ((.def_220 (and .def_217 .def_219)))
(let ((.def_221 (and .def_144 .def_220)))
(let ((.def_222 (and .def_147 .def_221)))
(let ((.def_223 (or .def_64 .def_222)))
(let ((.def_224 (or b.EVENT.1__AT0 .def_223)))
(let ((.def_232 (and .def_224 .def_231)))
(let ((.def_257 (and .def_232 .def_256)))
(let ((.def_131 (= b.time__AT0 b.time__AT1)))
(let ((.def_145 (and .def_131 .def_144)))
(let ((.def_148 (and .def_145 .def_147)))
(let ((.def_151 (and .def_148 .def_150)))
(let ((.def_163 (and .def_151 .def_162)))
(let ((.def_167 (and .def_163 .def_166)))
(let ((.def_168 (or .def_45 .def_167)))
(let ((.def_134 (* (- 1.0) b.time__AT1)))
(let ((.def_137 (+ b.delta__AT0 .def_134)))
(let ((.def_138 (+ b.time__AT0 .def_137)))
(let ((.def_139 (= .def_138 0.0 )))
(let ((.def_140 (or .def_65 .def_139)))
(let ((.def_141 (or b.EVENT.1__AT0 .def_140)))
(let ((.def_132 (or .def_64 .def_131)))
(let ((.def_133 (or b.EVENT.1__AT0 .def_132)))
(let ((.def_142 (and .def_133 .def_141)))
(let ((.def_169 (and .def_142 .def_168)))
(let ((.def_128 (= .def_65 b.event_is_timed__AT1)))
(let ((.def_126 (= b.event_is_timed__AT0 .def_64)))
(let ((.def_129 (and .def_126 .def_128)))
(let ((.def_170 (and .def_129 .def_169)))
(let ((.def_258 (and .def_170 .def_257)))
(let ((.def_262 (and .def_258 .def_261)))
(let ((.def_265 (and .def_262 .def_264)))
(let ((.def_266 (and .def_45 .def_265)))
(let ((.def_285 (and .def_266 .def_284)))
(let ((.def_289 (and .def_285 .def_288)))
(let ((.def_76 (* b.x__AT0 b.x__AT0)))
(let ((.def_72 (* 5.0 b.delta__AT0)))
(let ((.def_73 (* b.delta__AT0 .def_72)))
(let ((.def_74 (* (- 1.0) .def_73)))
(let ((.def_79 (+ .def_74 .def_76)))
(let ((.def_80 (+ .def_70 .def_79)))
(let ((.def_81 (+ b.y__AT0 .def_80)))
(let ((.def_82 (<= 0.0 .def_81)))
(let ((.def_118 (not .def_82)))
(let ((.def_99 (* (- 1.0) b.speed_y__AT0)))
(let ((.def_100 (* 10.0 b.delta__AT0)))
(let ((.def_101 (+ .def_100 .def_99)))
(let ((.def_102 (<= .def_101 0.0 )))
(let ((.def_119 (and .def_102 .def_118)))
(let ((.def_111 (+ b.y__AT0 .def_76)))
(let ((.def_116 (<= 0.0 .def_111)))
(let ((.def_113 (<= b.speed_y__AT0 0.0 )))
(let ((.def_117 (or .def_113 .def_116)))
(let ((.def_120 (or .def_117 .def_119)))
(let ((.def_112 (<= .def_111 0.0 )))
(let ((.def_114 (and .def_112 .def_113)))
(let ((.def_106 (<= 0.0 .def_101)))
(let ((.def_107 (not .def_106)))
(let ((.def_104 (= .def_81 0.0 )))
(let ((.def_105 (not .def_104)))
(let ((.def_108 (or .def_105 .def_107)))
(let ((.def_103 (or .def_82 .def_102)))
(let ((.def_109 (and .def_103 .def_108)))
(let ((.def_86 (* 20.0 b.x__AT0)))
(let ((.def_87 (* b.x__AT0 .def_86)))
(let ((.def_88 (+ .def_84 .def_87)))
(let ((.def_89 (* 20.0 b.y__AT0)))
(let ((.def_91 (+ .def_89 .def_88)))
(let ((.def_94 (<= .def_91 0.0 )))
(let ((.def_95 (not .def_94)))
(let ((.def_110 (or .def_95 .def_109)))
(let ((.def_115 (or .def_110 .def_114)))
(let ((.def_121 (and .def_115 .def_120)))
(let ((.def_92 (<= 0.0 .def_91)))
(let ((.def_93 (not .def_92)))
(let ((.def_122 (or .def_93 .def_121)))
(let ((.def_68 (not .def_67)))
(let ((.def_83 (or .def_68 .def_82)))
(let ((.def_123 (and .def_83 .def_122)))
(let ((.def_124 (or .def_65 .def_123)))
(let ((.def_54 (<= .def_53 b.y__AT0)))
(let ((.def_60 (and .def_54 .def_59)))
(let ((.def_48 (or .def_45 .def_47)))
(let ((.def_38 (or .def_26 .def_28)))
(let ((.def_42 (or b.counter.3__AT0 .def_38)))
(let ((.def_39 (or b.counter.2__AT0 .def_38)))
(let ((.def_37 (or .def_28 .def_31)))
(let ((.def_40 (and .def_37 .def_39)))
(let ((.def_41 (or .def_34 .def_40)))
(let ((.def_43 (and .def_41 .def_42)))
(let ((.def_49 (and .def_43 .def_48)))
(let ((.def_61 (and .def_49 .def_60)))
(let ((.def_29 (and .def_26 .def_28)))
(let ((.def_32 (and .def_29 .def_31)))
(let ((.def_35 (and .def_32 .def_34)))
(let ((.def_23 (= b.y__AT0 10.0 )))
(let ((.def_19 (= b.x__AT0 0.0 )))
(let ((.def_15 (= b.time__AT0 0.0 )))
(let ((.def_17 (and .def_15 b.event_is_timed__AT0)))
(let ((.def_20 (and .def_17 .def_19)))
(let ((.def_24 (and .def_20 .def_23)))
(let ((.def_36 (and .def_24 .def_35)))
(let ((.def_62 (and .def_36 .def_61)))
(let ((.def_6 (or .def_4 b.counter.1__AT3)))
(let ((.def_9 (or .def_6 .def_8)))
(let ((.def_11 (or .def_9 b.counter.3__AT3)))
(let ((.def_12 (not .def_11)))
(let ((.def_63 (and .def_12 .def_62)))
(let ((.def_125 (and .def_63 .def_124)))
(let ((.def_290 (and .def_125 .def_289)))
(let ((.def_344 (and .def_290 .def_343)))
(let ((.def_504 (and .def_344 .def_503)))
(let ((.def_558 (and .def_504 .def_557)))
(let ((.def_712 (and .def_558 .def_711)))
(let ((.def_766 (and .def_712 .def_765)))
.def_766)))))))))))))))))))))))))))))))))))))))))))))))))))))))))))))))))))))))))))))))))))))))))))))))))))))))))))))))))))))))))))))))))))))))))))))))))))))))))))))))))))))))))))))))))))))))))))))))))))))))))))))))))))))))))))))))))))))))))))))))))))))))))))))))))))))))))))))))))))))))))))))))))))))))))))))))))))))))))))))))))))))))))))))))))))))))))))))))))))))))))))))))))))))))))))))))))))))))))))))))))))))))))))))))))))))))))))))))))))))))))))))))))))))))))))))))))))))))))))))))))))))))))))))))))))))))))))))))))))))))))))))))))))))))))))))))))))))))))))))))))))))))))))))))))))))))))))))))))))))))))))))))))))))))))))))))))))))))))))))))))))))))))))))))))))))))
(check-sat)
(exit)
